Copyright (C) 2013-2015, Filipe Brandao
Build (method = -2)
  #dp: 1432
  Step-3' Graph: 87 vertices and 870 arcs (0.00s)
  Step-4' Graph: 83 vertices and 862 arcs (0.00s)
  #V4/#V3 = 0.95
  #A4/#A3 = 0.99
Ready! (0.00s)
Optimize a model with 118 rows, 863 columns and 2428 nonzeros
Found heuristic solution: objective 36
Presolve removed 11 rows and 11 columns
Presolve time: 0.01s
Presolved: 107 rows, 852 columns, 2400 nonzeros
Variable types: 0 continuous, 852 integer (505 binary)
Optimize a model with 107 rows, 852 columns and 2400 nonzeros
Presolved: 107 rows, 852 columns, 2400 nonzeros

Root barrier log...

Ordering time: 0.00s

Barrier statistics:
 AA' NZ     : 1.475e+03
 Factor NZ  : 3.227e+03
 Factor Ops : 1.296e+05 (less than 1 second per iteration)
 Threads    : 1

                  Objective                Residual
Iter       Primal          Dual         Primal    Dual     Compl     Time
   0   5.54710325e+02 -2.13757865e+03  3.12e+03 1.04e-01  8.09e+00     0s
   1   1.57995837e+02 -7.74399765e+02  4.02e+02 6.66e-16  1.31e+00     0s
   2   6.52691529e+01 -2.46819046e+02  6.16e+01 7.90e-03  2.82e-01     0s
   3   3.35038882e+01 -2.62016906e+01  3.72e+00 7.97e-04  3.92e-02     0s
   4   2.52313797e+01  3.54856185e+00  2.57e-01 9.60e-05  1.28e-02     0s
   5   2.32724669e+01  9.81132025e+00  1.48e-01 2.98e-16  7.93e-03     0s
   6   2.18366226e+01  1.42840086e+01  9.12e-02 1.99e-16  4.44e-03     0s
   7   2.17667124e+01  1.55776697e+01  7.48e-02 2.72e-16  3.64e-03     0s
   8   2.06019868e+01  1.73539826e+01  2.96e-02 3.42e-16  1.90e-03     0s
   9   2.01300961e+01  1.82830557e+01  1.42e-02 6.92e-06  1.08e-03     0s
  10   1.98871266e+01  1.89188387e+01  6.45e-03 2.49e-16  5.66e-04     0s
  11   1.98252756e+01  1.91114807e+01  4.80e-03 2.99e-16  4.17e-04     0s
  12   1.97449190e+01  1.93464543e+01  2.29e-03 2.66e-16  2.33e-04     0s
  13   1.96818427e+01  1.94983802e+01  1.00e-03 3.33e-16  1.07e-04     0s
  14   1.96487708e+01  1.95768711e+01  4.38e-04 2.83e-16  4.20e-05     0s
  15   1.96258894e+01  1.95983266e+01  8.35e-05 2.46e-16  1.61e-05     0s
  16   1.96222839e+01  1.96006667e+01  4.78e-05 2.87e-16  1.26e-05     0s
  17   1.96195985e+01  1.96089808e+01  2.38e-05 2.27e-16  6.20e-06     0s
  18   1.96162131e+01  1.96148000e+01  3.79e-07 3.33e-16  8.25e-07     0s
  19   1.96160805e+01  1.96160663e+01  4.09e-14 3.33e-16  8.26e-09     0s
  20   1.96160714e+01  1.96160714e+01  7.95e-14 3.08e-16  1.08e-14     0s

Barrier solved model in 20 iterations and 0.01 seconds
Optimal objective 1.96160714e+01


Root relaxation: objective 1.961607e+01, 80 iterations, 0.01 seconds

    Nodes    |    Current Node    |     Objective Bounds      |     Work
 Expl Unexpl |  Obj  Depth IntInf | Incumbent    BestBd   Gap | It/Node Time

     0     0   19.61607    0   31   36.00000   19.61607  45.5%     -    0s
H    0     0                      27.0000000   19.61607  27.3%     -    0s
H    0     0                      21.0000000   19.61607  6.59%     -    0s
H    0     0                      20.0000000   19.61607  1.92%     -    0s

Explored 0 nodes (150 simplex iterations) in 0.03 seconds
Thread count was 1 (of 4 available processors)

Optimal solution found (tolerance 0.00e+00)
Best objective 2.000000000000e+01, best bound 2.000000000000e+01, gap 0.0%
Preprocessing time: 0.00 seconds
Gurobi run time: 0.03 seconds
Total run time: 0.03 seconds
Objective: 20
Solution:
1 x [i=1, i=27]
1 x [i=1, i=28]
2 x [i=1, i=29]
1 x [i=2, i=24]
1 x [i=3, i=23]
1 x [i=4, i=32, i=34]
1 x [i=5, i=20]
1 x [i=6, i=19]
1 x [i=7, i=13]
1 x [i=8, i=25]
1 x [i=9, i=9]
1 x [i=10, i=16, i=34]
1 x [i=10, i=21, i=26]
1 x [i=10, i=25, i=30, i=35]
1 x [i=11, i=15, i=33]
1 x [i=11, i=17, i=31]
1 x [i=12, i=22, i=35]
1 x [i=14, i=20, i=25]
1 x [i=15, i=18, i=26]
